3988664
815504
1662910
2306615
2860658
4722360
869156
2300117
1844230
4183272
2947155
1073505
2650818
2863089
4056535
1475702
4604208
1878524
1341899
3740647
3484509
4343057
3017897
1990796
559831
767541
2405721
2116842
2244423
889889
